c Sudoku solution
p cnf 729 0
166 0
179 0
221 0
248 0
293 0
342 0
386 0
422 0
461 0
473 0
489 0
514 0
543 0
569 0
626 0
644 0
494 0
667 0
775 0
825 0
836 0
216 0
883 0
919 0
639 0
613 0
531 0
329 0
259 0
923 0
938 0
947 0
145 0
264 0
363 0
133 0
446 0
753 0
956 0
965 0
796 0
899 0
749 0
841 0
711 0
854 0
576 0
357 0
151 0
878 0
787 0
724 0
732 0
817 0
768 0
862 0
112 0
437 0
415 0
528 0
458 0
318 0
127 0
334 0
235 0
184 0
371 0
395 0
198 0
974 0
277 0
282 0
672 0
552 0
655 0
981 0
992 0
688 0
691 0
585 0
597 0
